c ind 10 101 103 105 107 109 111 113 115 117 0
c ind 119 121 123 125 127 13 146 15 210 24 0
c ind 27 46 48 5 50 52 54 56 58 6 0
c ind 60 62 64 66 68 70 72 74 76 9 0
c ind 97 99 0
p cnf 211 615
-1 -2 11 0
-1 2 211 0
-100 -101 13 0
-100 -13 101 0
-102 -103 13 0
-102 -13 103 0
-104 -105 13 0
-104 -13 105 0
-106 -107 13 0
-106 -13 107 0
-108 -109 13 0
-108 -13 109 0
-11 -12 14 0
-11 12 16 0
-110 -111 13 0
-110 -13 111 0
-112 -113 13 0
-112 -13 113 0
-114 -115 13 0
-114 -13 115 0
-116 -117 13 0
-116 -13 117 0
-118 -119 13 0
-118 -13 119 0
-12 -13 9 0
-12 -9 13 0
-120 -121 13 0
-120 -13 121 0
-122 -123 13 0
-122 -13 123 0
-124 -125 13 0
-124 -13 125 0
-126 -127 13 0
-126 -13 127 0
-128 129 0
-128 203 0
-129 130 0
-129 199 0
-130 131 0
-130 195 0
-131 132 0
-131 191 0
-132 133 0
-132 187 0
-133 134 0
-133 183 0
-134 135 0
-134 179 0
-135 136 0
-135 175 0
-136 137 0
-136 171 0
-137 138 0
-137 167 0
-138 139 0
-138 163 0
-139 140 0
-139 159 0
-14 -13 15 0
-14 -15 13 0
-140 141 0
-140 155 0
-141 142 0
-141 151 0
-142 143 0
-142 147 0
-143 -13 144 0
-143 -144 13 0
-144 -145 -146 0
-144 145 146 0
-145 -46 -13 0
-145 46 13 0
-146 0
-147 -13 148 0
-147 -148 13 0
-148 -149 -150 0
-148 149 150 0
-149 -48 -146 0
-149 48 146 0
-150 46 146 0
-151 -13 152 0
-151 -152 13 0
-152 -153 -154 0
-152 153 154 0
-153 -50 -146 0
-153 50 146 0
-154 150 0
-154 48 0
-155 -13 156 0
-155 -156 13 0
-156 -157 -158 0
-156 157 158 0
-157 -52 -146 0
-157 52 146 0
-158 154 0
-158 50 0
-159 -13 160 0
-159 -160 13 0
-16 -17 19 0
-16 17 211 0
-160 -161 -162 0
-160 161 162 0
-161 -54 -146 0
-161 54 146 0
-162 158 0
-162 52 0
-163 -13 164 0
-163 -164 13 0
-164 -165 -166 0
-164 165 166 0
-165 -56 -146 0
-165 56 146 0
-166 162 0
-166 54 0
-167 -13 168 0
-167 -168 13 0
-168 -169 -170 0
-168 169 170 0
-169 -58 -146 0
-169 58 146 0
-17 18 0
-17 3 0
-170 166 0
-170 56 0
-171 -13 172 0
-171 -172 13 0
-172 -173 -174 0
-172 173 174 0
-173 -60 -146 0
-173 60 146 0
-174 170 0
-174 58 0
-175 -13 176 0
-175 -176 13 0
-176 -177 -178 0
-176 177 178 0
-177 -62 -146 0
-177 62 146 0
-178 174 0
-178 60 0
-179 -13 180 0
-179 -180 13 0
-18 -13 5 0
-18 -5 13 0
-180 -181 -182 0
-180 181 182 0
-181 -64 -146 0
-181 64 146 0
-182 178 0
-182 62 0
-183 -13 184 0
-183 -184 13 0
-184 -185 -186 0
-184 185 186 0
-185 -66 -146 0
-185 66 146 0
-186 182 0
-186 64 0
-187 -13 188 0
-187 -188 13 0
-188 -189 -190 0
-188 189 190 0
-189 -68 -146 0
-189 68 146 0
-19 -20 207 0
-19 20 211 0
-190 186 0
-190 66 0
-191 -13 192 0
-191 -192 13 0
-192 -193 -194 0
-192 193 194 0
-193 -70 -146 0
-193 70 146 0
-194 190 0
-194 68 0
-195 -13 196 0
-195 -196 13 0
-196 -197 -198 0
-196 197 198 0
-197 -72 -146 0
-197 72 146 0
-198 194 0
-198 70 0
-199 -13 200 0
-199 -200 13 0
-2 3 7 0
-20 -21 28 0
-20 21 30 0
-200 -201 -202 0
-200 201 202 0
-201 -74 -146 0
-201 74 146 0
-202 198 0
-202 72 0
-203 -13 204 0
-203 -204 13 0
-204 -205 -206 0
-204 205 206 0
-205 -76 -146 0
-205 76 146 0
-206 202 0
-206 74 0
-207 -15 208 0
-207 -208 15 0
-208 -209 -146 0
-208 209 146 0
-209 -210 -13 0
-209 210 13 0
-21 22 25 0
-211 -15 210 0
-211 -210 15 0
-22 -23 0
-23 -24 6 0
-23 -6 24 0
-25 -26 0
-26 -10 27 0
-26 -27 10 0
-28 -29 30 0
-28 29 77 0
-29 -10 13 0
-29 -13 10 0
-3 -4 0
-30 31 0
-30 75 0
-31 32 0
-31 73 0
-32 33 0
-32 71 0
-33 34 0
-33 69 0
-34 35 0
-34 67 0
-35 36 0
-35 65 0
-36 37 0
-36 63 0
-37 38 0
-37 61 0
-38 39 0
-38 59 0
-39 40 0
-39 57 0
-4 -5 6 0
-4 -6 5 0
-40 41 0
-40 55 0
-41 42 0
-41 53 0
-42 43 0
-42 51 0
-43 44 0
-43 49 0
-44 45 0
-44 47 0
-45 -13 46 0
-45 -46 13 0
-47 -13 48 0
-47 -48 13 0
-49 -13 50 0
-49 -50 13 0
-51 -13 52 0
-51 -52 13 0
-53 -13 54 0
-53 -54 13 0
-55 -13 56 0
-55 -56 13 0
-57 -13 58 0
-57 -58 13 0
-59 -13 60 0
-59 -60 13 0
-61 -13 62 0
-61 -62 13 0
-63 -13 64 0
-63 -64 13 0
-65 -13 66 0
-65 -66 13 0
-67 -13 68 0
-67 -68 13 0
-69 -13 70 0
-69 -70 13 0
-7 -8 0
-71 -13 72 0
-71 -72 13 0
-73 -13 74 0
-73 -74 13 0
-75 -13 76 0
-75 -76 13 0
-77 -78 80 0
-77 78 30 0
-78 22 0
-78 79 0
-79 -13 6 0
-79 -6 13 0
-8 -10 9 0
-8 -9 10 0
-80 -30 81 0
-80 30 128 0
-81 126 0
-81 82 0
-82 124 0
-82 83 0
-83 122 0
-83 84 0
-84 120 0
-84 85 0
-85 118 0
-85 86 0
-86 116 0
-86 87 0
-87 114 0
-87 88 0
-88 112 0
-88 89 0
-89 110 0
-89 90 0
-90 108 0
-90 91 0
-91 106 0
-91 92 0
-92 104 0
-92 93 0
-93 102 0
-93 94 0
-94 100 0
-94 95 0
-95 96 0
-95 98 0
-96 -13 97 0
-96 -97 13 0
-98 -13 99 0
-98 -99 13 0
1 -11 -211 0
1 -2 -11 0
1 0
1 2 -211 0
100 -101 -13 0
100 101 13 0
102 -103 -13 0
102 103 13 0
104 -105 -13 0
104 105 13 0
106 -107 -13 0
106 107 13 0
108 -109 -13 0
108 109 13 0
11 -12 -14 0
11 -14 -16 0
11 12 -16 0
110 -111 -13 0
110 111 13 0
112 -113 -13 0
112 113 13 0
114 -115 -13 0
114 115 13 0
116 -117 -13 0
116 117 13 0
118 -119 -13 0
118 119 13 0
12 -9 -13 0
12 9 13 0
120 -121 -13 0
120 121 13 0
122 -123 -13 0
122 123 13 0
124 -125 -13 0
124 125 13 0
126 -127 -13 0
126 127 13 0
128 -129 -203 0
129 -130 -199 0
13 0
130 -131 -195 0
131 -132 -191 0
132 -133 -187 0
133 -134 -183 0
134 -135 -179 0
135 -136 -175 0
136 -137 -171 0
137 -138 -167 0
138 -139 -163 0
139 -140 -159 0
14 -15 -13 0
14 15 13 0
140 -141 -155 0
141 -142 -151 0
142 -143 -147 0
143 -144 -13 0
143 144 13 0
144 -145 146 0
144 -146 145 0
145 -13 46 0
145 -46 13 0
147 -148 -13 0
147 148 13 0
148 -149 150 0
148 -150 149 0
149 -146 48 0
149 -48 146 0
150 -146 0
150 -46 0
151 -152 -13 0
151 152 13 0
152 -153 154 0
152 -154 153 0
153 -146 50 0
153 -50 146 0
154 -48 -150 0
155 -156 -13 0
155 156 13 0
156 -157 158 0
156 -158 157 0
157 -146 52 0
157 -52 146 0
158 -50 -154 0
159 -160 -13 0
159 160 13 0
16 -17 -19 0
16 -19 -211 0
16 17 -211 0
160 -161 162 0
160 -162 161 0
161 -146 54 0
161 -54 146 0
162 -52 -158 0
163 -164 -13 0
163 164 13 0
164 -165 166 0
164 -166 165 0
165 -146 56 0
165 -56 146 0
166 -54 -162 0
167 -168 -13 0
167 168 13 0
168 -169 170 0
168 -170 169 0
169 -146 58 0
169 -58 146 0
17 -3 -18 0
170 -56 -166 0
171 -172 -13 0
171 172 13 0
172 -173 174 0
172 -174 173 0
173 -146 60 0
173 -60 146 0
174 -58 -170 0
175 -176 -13 0
175 176 13 0
176 -177 178 0
176 -178 177 0
177 -146 62 0
177 -62 146 0
178 -60 -174 0
179 -180 -13 0
179 180 13 0
18 -5 -13 0
18 5 13 0
180 -181 182 0
180 -182 181 0
181 -146 64 0
181 -64 146 0
182 -62 -178 0
183 -184 -13 0
183 184 13 0
184 -185 186 0
184 -186 185 0
185 -146 66 0
185 -66 146 0
186 -64 -182 0
187 -188 -13 0
187 188 13 0
188 -189 190 0
188 -190 189 0
189 -146 68 0
189 -68 146 0
19 -20 -207 0
19 -207 -211 0
19 20 -211 0
190 -66 -186 0
191 -192 -13 0
191 192 13 0
192 -193 194 0
192 -194 193 0
193 -146 70 0
193 -70 146 0
194 -68 -190 0
195 -196 -13 0
195 196 13 0
196 -197 198 0
196 -198 197 0
197 -146 72 0
197 -72 146 0
198 -70 -194 0
199 -200 -13 0
199 200 13 0
2 -3 0
2 -7 0
20 -21 -28 0
20 -28 -30 0
20 21 -30 0
200 -201 202 0
200 -202 201 0
201 -146 74 0
201 -74 146 0
202 -72 -198 0
203 -204 -13 0
203 204 13 0
204 -205 206 0
204 -206 205 0
205 -146 76 0
205 -76 146 0
206 -74 -202 0
207 -15 -208 0
207 15 208 0
208 -146 209 0
208 -209 146 0
209 -13 210 0
209 -210 13 0
21 -22 0
21 -25 0
211 -15 -210 0
211 15 210 0
22 23 0
23 -6 -24 0
23 6 24 0
25 26 0
26 -10 -27 0
26 10 27 0
28 -29 -30 0
28 -30 -77 0
28 29 -77 0
29 -10 -13 0
29 10 13 0
3 4 0
30 -31 -75 0
31 -32 -73 0
32 -33 -71 0
33 -34 -69 0
34 -35 -67 0
35 -36 -65 0
36 -37 -63 0
37 -38 -61 0
38 -39 -59 0
39 -40 -57 0
4 -5 -6 0
4 5 6 0
40 -41 -55 0
41 -42 -53 0
42 -43 -51 0
43 -44 -49 0
44 -45 -47 0
45 -46 -13 0
45 46 13 0
47 -48 -13 0
47 48 13 0
49 -50 -13 0
49 50 13 0
51 -52 -13 0
51 52 13 0
53 -54 -13 0
53 54 13 0
55 -56 -13 0
55 56 13 0
57 -58 -13 0
57 58 13 0
59 -60 -13 0
59 60 13 0
61 -62 -13 0
61 62 13 0
63 -64 -13 0
63 64 13 0
65 -66 -13 0
65 66 13 0
67 -68 -13 0
67 68 13 0
69 -70 -13 0
69 70 13 0
7 8 0
71 -72 -13 0
71 72 13 0
73 -74 -13 0
73 74 13 0
75 -76 -13 0
75 76 13 0
77 -78 -80 0
77 -80 -30 0
77 78 -30 0
78 -22 -79 0
79 -6 -13 0
79 6 13 0
8 -9 -10 0
8 9 10 0
80 -30 -81 0
80 -81 -128 0
80 30 -128 0
81 -82 -126 0
82 -83 -124 0
83 -84 -122 0
84 -85 -120 0
85 -86 -118 0
86 -87 -116 0
87 -88 -114 0
88 -89 -112 0
89 -90 -110 0
90 -91 -108 0
91 -92 -106 0
92 -93 -104 0
93 -94 -102 0
94 -95 -100 0
95 -96 -98 0
96 -97 -13 0
96 97 13 0
98 -99 -13 0
98 99 13 0
